c A SAT instance generated from a 3-CNF formula that had 36 clauses and 12 variables
p cnf 12 36
-8 -5 -6 0
5 3 11 0
-9 -1 -4 0
3 10 1 0
9 6 11 0
11 -6 -2 0
6 -2 -5 0
7 -9 10 0
1 4 2 0
-12 -2 -1 0
6 -9 -2 0
6 10 5 0
1 9 -3 0
-6 -7 4 0
-4 12 5 0
-11 -2 -4 0
3 2 7 0
-3 8 6 0
-7 2 6 0
-12 2 -9 0
-12 -11 9 0
-7 -6 12 0
10 -11 -6 0
2 -7 -10 0
-1 -11 -4 0
1 12 -8 0
6 9 -10 0
-12 -2 -1 0
2 9 -7 0
-8 11 2 0
-2 9 -5 0
-7 1 -6 0
-7 -3 2 0
7 -9 1 0
12 7 -8 0
-4 6 -7 0
